c File: instances/16_0.45_3.col
c
c Description: Random graph of size 16 vertices and P(0.44999999999999996) of edges between any two vertices.
p col 16 120
e 1 3
e 1 6
e 1 7
e 1 8
e 1 9
e 1 12
e 1 16
e 2 4
e 2 5
e 2 7
e 2 9
e 2 10
e 2 13
e 2 14
e 2 16
e 3 5
e 3 6
e 3 7
e 3 8
e 3 9
e 3 11
e 3 12
e 3 16
e 4 6
e 4 8
e 4 13
e 4 14
e 4 16
e 5 7
e 5 9
e 5 12
e 5 14
e 6 7
e 6 8
e 6 9
e 6 13
e 7 9
e 7 12
e 7 13
e 7 15
e 8 9
e 8 10
e 8 13
e 8 14
e 9 10
e 9 12
e 9 13
e 9 14
e 10 12
e 10 13
e 10 14
e 10 15
e 11 15
e 11 16
e 12 14
e 12 15
e 14 15
e 14 16